7
0, 328, 453, 604, 284, 376, 843
328, 0, 551, 928, 609, 413, 859
453, 551, 0, 692, 592, 143, 396
604, 928, 692, 0, 363, 751, 1011
284, 609, 592, 363, 0, 577, 981
376, 413, 143, 751, 577, 0, 477
843, 859, 396, 1011, 981, 477, 0
